c generated by sgen
p cnf 69 148
-2 -3 -4 0
-1 -3 -4 0
-1 -2 -4 0
-1 -2 -3 0
-6 -7 -8 0
-5 -7 -8 0
-5 -6 -8 0
-5 -6 -7 0
-10 -11 -12 0
-9 -11 -12 0
-9 -10 -12 0
-9 -10 -11 0
-14 -15 -16 0
-13 -15 -16 0
-13 -14 -16 0
-13 -14 -15 0
-18 -19 -20 0
-17 -19 -20 0
-17 -18 -20 0
-17 -18 -19 0
-22 -23 -24 0
-21 -23 -24 0
-21 -22 -24 0
-21 -22 -23 0
-26 -27 -28 0
-25 -27 -28 0
-25 -26 -28 0
-25 -26 -27 0
-30 -31 -32 0
-29 -31 -32 0
-29 -30 -32 0
-29 -30 -31 0
-34 -35 -36 0
-33 -35 -36 0
-33 -34 -36 0
-33 -34 -35 0
-38 -39 -40 0
-37 -39 -40 0
-37 -38 -40 0
-37 -38 -39 0
-42 -43 -44 0
-41 -43 -44 0
-41 -42 -44 0
-41 -42 -43 0
-46 -47 -48 0
-45 -47 -48 0
-45 -46 -48 0
-45 -46 -47 0
-50 -51 -52 0
-49 -51 -52 0
-49 -50 -52 0
-49 -50 -51 0
-54 -55 -56 0
-53 -55 -56 0
-53 -54 -56 0
-53 -54 -55 0
-58 -59 -60 0
-57 -59 -60 0
-57 -58 -60 0
-57 -58 -59 0
-62 -63 -64 0
-61 -63 -64 0
-61 -62 -64 0
-61 -62 -63 0
-65 -66 -67 0
-65 -66 -68 0
-65 -66 -69 0
-65 -67 -68 0
-65 -67 -69 0
-65 -68 -69 0
-66 -67 -68 0
-66 -67 -69 0
-66 -68 -69 0
-67 -68 -69 0
44 40 19 0
4 40 19 0
4 44 19 0
4 44 40 0
33 2 11 0
54 2 11 0
54 33 11 0
54 33 2 0
66 12 16 0
43 12 16 0
43 66 16 0
43 66 12 0
50 9 31 0
28 9 31 0
28 50 31 0
28 50 9 0
49 6 37 0
68 6 37 0
68 49 37 0
68 49 6 0
14 46 26 0
39 46 26 0
39 14 26 0
39 14 46 0
62 18 10 0
48 18 10 0
48 62 10 0
48 62 18 0
51 60 22 0
13 60 22 0
13 51 22 0
13 51 60 0
45 55 52 0
41 55 52 0
41 45 52 0
41 45 55 0
67 58 25 0
63 58 25 0
63 67 25 0
63 67 58 0
61 34 38 0
24 34 38 0
24 61 38 0
24 61 34 0
59 42 35 0
32 42 35 0
32 59 35 0
32 59 42 0
17 36 27 0
5 36 27 0
5 17 27 0
5 17 36 0
7 3 57 0
47 3 57 0
47 7 57 0
47 7 3 0
69 1 21 0
29 1 21 0
29 69 21 0
29 69 1 0
53 20 65 0
23 20 65 0
23 53 65 0
23 53 20 0
64 15 8 0
64 15 30 0
64 15 56 0
64 8 30 0
64 8 56 0
64 30 56 0
15 8 30 0
15 8 56 0
15 30 56 0
8 30 56 0
